
Welcome to IBM(R) ILOG(R) CPLEX(R) Interactive Optimizer 22.1.1.0
  with Simplex, Mixed Integer & Barrier Optimizers
5725-A06 5725-A29 5724-Y48 5724-Y49 5724-Y54 5724-Y55 5655-Y21
Copyright IBM Corp. 1988, 2022.  All Rights Reserved.

Type 'help' for a list of available commands.
Type 'help' followed by a command name for more
information on commands.

CPLEX> Selected objective sense:  MINIMIZE
Selected objective  name:  00000000
Selected RHS        name:  RHS1
Selected bound      name:  BOUND
Problem 'ee.mps' read.
Read time = 0.02 sec. (3.14 ticks)
CPLEX> New value for time limit in seconds: 7200
CPLEX> New value for parallel optimization mode: -1
CPLEX> New value for default parallel thread count: 40
CPLEX> New value for mixed integer optimality gap tolerance: 1e-13
CPLEX> Version identifier: 22.1.1.0 | 2022-11-28 | 9160aff4d
CPXPARAM_Threads                                 40
CPXPARAM_Parallel                                -1
CPXPARAM_TimeLimit                               7200
CPXPARAM_MIP_Tolerances_MIPGap                   1e-13
Found incumbent of value 0.000000 after 0.00 sec. (0.31 ticks)
Tried aggregator 2 times.
MIP Presolve eliminated 180 rows and 2745 columns.
MIP Presolve modified 5862 coefficients.
Aggregator did 713 substitutions.
Reduced MIP has 3624 rows, 7739 columns, and 28645 nonzeros.
Reduced MIP has 7739 binaries, 0 generals, 0 SOSs, and 0 indicators.
Presolve time = 0.06 sec. (68.59 ticks)
Probing time = 0.03 sec. (5.47 ticks)
Tried aggregator 1 time.
Detecting symmetries...
Reduced MIP has 3624 rows, 7739 columns, and 28645 nonzeros.
Reduced MIP has 7739 binaries, 0 generals, 0 SOSs, and 0 indicators.
Presolve time = 0.02 sec. (21.83 ticks)
Probing time = 0.02 sec. (5.27 ticks)
Clique table members: 18552.
MIP emphasis: balance optimality and feasibility.
MIP search method: dynamic search.
Parallel mode: opportunistic, using up to 40 threads.
Root relaxation solution time = 0.14 sec. (108.88 ticks)

        Nodes                                         Cuts/
   Node  Left     Objective  IInf  Best Integer    Best Bound    ItCnt     Gap

*     0+    0                            0.0000  -1.31000e+13              --- 
*     0+    0                      -4.40000e+12  -1.31000e+13           197.73%
      0     0  -1.30900e+13    47  -4.40000e+12  -1.30900e+13     2566  197.50%
*     0+    0                      -1.30900e+13  -1.30900e+13             0.00%
*     0+    0                      -1.30900e+13  -1.30900e+13             0.00%
      0     0  -1.30900e+13    65  -1.30900e+13      Cuts: 51     3143    0.00%
*     0+    0                      -1.30900e+13  -1.30900e+13             0.00%
      0     0  -1.30900e+13   119  -1.30900e+13      Cuts: 57     3822    0.00%

Repeating presolve.
Tried aggregator 2 times.
MIP Presolve eliminated 1418 rows and 3819 columns.
MIP Presolve added 38 rows and 0 columns.
MIP Presolve modified 126 coefficients.
Aggregator did 571 substitutions.
Reduced MIP has 1673 rows, 3293 columns, and 11985 nonzeros.
Reduced MIP has 3293 binaries, 0 generals, 0 SOSs, and 0 indicators.
Presolve time = 0.04 sec. (44.60 ticks)
Probing fixed 1 vars, tightened 0 bounds.
Probing time = 0.04 sec. (12.84 ticks)
Tried aggregator 1 time.
MIP Presolve eliminated 59 rows and 46 columns.
Reduced MIP has 1614 rows, 3237 columns, and 11829 nonzeros.
Reduced MIP has 3237 binaries, 0 generals, 0 SOSs, and 0 indicators.
Presolve time = 0.01 sec. (10.71 ticks)
Probing time = 0.02 sec. (3.74 ticks)
Tried aggregator 1 time.
Detecting symmetries...
Reduced MIP has 1614 rows, 3237 columns, and 11829 nonzeros.
Reduced MIP has 3237 binaries, 0 generals, 0 SOSs, and 0 indicators.
Presolve time = 0.01 sec. (12.00 ticks)
Represolve time = 0.14 sec. (100.22 ticks)
Probing time = 0.02 sec. (3.73 ticks)
Clique table members: 7646.
MIP emphasis: balance optimality and feasibility.
MIP search method: dynamic search.
Parallel mode: opportunistic, using up to 40 threads.
Root relaxation solution time = 0.05 sec. (28.53 ticks)

        Nodes                                         Cuts/
   Node  Left     Objective  IInf  Best Integer    Best Bound    ItCnt     Gap

*     0+    0                      -1.30900e+13  -1.30900e+13             0.00%
      0     0  -1.30900e+13    80  -1.30900e+13  -1.30900e+13     4753    0.00%
      0     0  -1.30900e+13   145  -1.30900e+13      Cuts: 92     4894    0.00%
      0     0  -1.30900e+13   159  -1.30900e+13      Cuts: 39     5144    0.00%
      0     2  -1.30900e+13   150  -1.30900e+13  -1.30900e+13     5144    0.00%
Elapsed time = 1.81 sec. (1153.64 ticks, tree = 0.02 MB, solutions = 5)
   1605    63        cutoff        -1.30900e+13  -1.30900e+13    62524    0.00%
   4467    59  -1.30900e+13   165  -1.30900e+13  -1.30900e+13   213410    0.00%
   6044    83        cutoff        -1.30900e+13  -1.30900e+13   217688    0.00%

GUB cover cuts applied:  2
Clique cuts applied:  21
Cover cuts applied:  299
Flow cuts applied:  5
Mixed integer rounding cuts applied:  6
Zero-half cuts applied:  16
Lift and project cuts applied:  14
Gomory fractional cuts applied:  22

Root node processing (before b&c):
  Real time             =    1.52 sec. (1152.99 ticks)
Parallel b&c, 40 threads:
  Real time             =    1.47 sec. (766.88 ticks)
  Sync time (average)   =    0.43 sec.
  Wait time (average)   =    0.00 sec.
                          ------------
Total (root+branch&cut) =    2.99 sec. (1919.87 ticks)

Solution pool: 6 solutions saved.

MIP - Integer optimal solution:  Objective = -1.3089999891e+13
Solution time =    3.08 sec.  Iterations = 253154  Nodes = 6086
Deterministic time = 1919.91 ticks  (624.29 ticks/sec)

CPLEX> Solution 'p7' written to file 'ee.sol'.
CPLEX> 